submitit INFO (2023-05-02 18:49:22,334) - Starting with JobEnvironment(job_id=27724, hostname=cpunode3, local_rank=2(5), node=0(1), global_rank=2(5))
submitit INFO (2023-05-02 18:49:22,334) - Loading pickle: /h/30/pashootan/Matrix-Mult-CP/src/../logs/4/1x1x3_3_May02_18:49:21/27724_submitted.pkl
 ! --------------------------------------------------- CP Optimizer 22.1.1.0 --
 ! Satisfiability problem - 21 variables, 9 constraints
 ! TimeLimit            = 7200
 ! Workers              = 8
 ! LogPeriod            = 10000000
 ! RandomSeed           = 8078
 ! Initial process time : 0.00s (0.00s extraction + 0.00s propagation)
 !  . Log search space  : 33.3 (before), 33.3 (after)
 !  . Memory usage      : 299.8 kB (before), 299.8 kB (after)
 ! Using parallel search with 8 workers.
 ! ----------------------------------------------------------------------------
 !               Branches  Non-fixed    W       Branch decision
 *                    235  0.01s        1        -1  = W2_0
 ! ----------------------------------------------------------------------------
 ! Search completed, 1 solution found.
 ! ----------------------------------------------------------------------------
 ! Number of branches     : 739
 ! Number of fails        : 307
 ! Total memory usage     : 4.5 MB (4.4 MB CP Optimizer + 0.0 MB Concert)
 ! Time spent in solve    : 0.01s (0.01s engine + 0.00s extraction)
 ! Search speed (br. / s) : 73900.0
 ! ----------------------------------------------------------------------------
Feasible
Model is valid
Saving solution to: /h/30/pashootan/Matrix-Mult-CP/logs/4/1x1x3_3_May02_18:49:21/27724_2_solution.txt
Saving stats to: /h/30/pashootan/Matrix-Mult-CP/logs/4/1x1x3_3_May02_18:49:21/27724_2_stats.csv
submitit INFO (2023-05-02 18:49:23,147) - Job completed successfully
